\ENCODING=ISO-8859-1
\Problem name: cluster_small_cut_n6

Maximize
 obj1: 27 x0 + 18 x1 + 55 x2 + 56 x3 + 44 x4 + 97 x5 + 75 x6 + 47 x7 + 43 x8
       + 9 x9 + 16 x10 + 71 x11
Subject To
 c0:    56 x0 + 23 x1 + 89 x2 + 28 x3 + 74 x4 + 54 x5 + 87 x6 + 99 x7 + 13 x8
        + 9 x9 + 58 x10 + 84 x11 + s0 <= 32
 c1:    14 x0 + 98 x1 + 37 x2 + 53 x3 + 14 x4 + 20 x5 + 38 x6 + 15 x7 + 59 x8
        + 11 x9 + 21 x10 + 65 x11 + s1 <= 513
 c2:    39 x0 + 94 x1 + 4 x2 + 28 x3 + 66 x4 + 46 x5 + 76 x6 + 47 x7 + 50 x8
        + 88 x9 + 25 x10 + 50 x11 + s2 <= 879
 c3:    95 x0 + 99 x1 + 92 x2 + 7 x3 + 35 x4 + 80 x5 + 77 x6 + 35 x7 + 47 x8
        + 96 x9 + 60 x10 + 38 x11 + s3 <= 365
 c4:    20 x0 + 15 x1 + 76 x2 + 29 x3 + 24 x4 + 65 x5 + 80 x6 + 50 x7 + 80 x8
        + 88 x9 + 85 x10 + 95 x11 + s4 <= 1014
 c5:    10 x0 + 94 x1 + 40 x2 + 4 x3 + 92 x4 + 33 x5 + 94 x6 + 5 x7 + 87 x8
        + 72 x9 + 76 x10 + 95 x11 + s5 <= 73
 c6:    76 x0 + 80 x1 + 63 x2 + 45 x3 + 27 x4 + 36 x5 + 73 x6 + 58 x7 + 94 x8
        + 3 x9 + 85 x10 + 65 x11 + s6 <= 181
 c7:    7 x0 + 48 x1 + 44 x2 + 16 x3 + 74 x4 + 7 x5 + 58 x6 + 53 x7 + 84 x8
        + 99 x9 + 37 x10 + 94 x11 + s7 <= 465
 c8:    100 x0 + 22 x1 + 41 x2 + 15 x3 + 38 x4 + 4 x5 + 25 x6 + 8 x7 + 56 x8
        + 66 x9 + x10 + 54 x11 + s8 <= 174
 c9:    37 x0 + 96 x1 + 29 x2 + 97 x3 + 50 x4 + 96 x5 + 55 x6 + 23 x7 + 43 x8
        + 18 x9 + 18 x10 + 60 x11 + s9 <= 694
 c10:   74 x0 + 90 x1 + 96 x2 + 65 x3 + 58 x4 + 79 x5 + 67 x6 + 13 x7 + 28 x8
        + 70 x9 + 15 x10 + 49 x11 + s10 <= 751
 c11:   44 x0 + 31 x1 + 65 x2 + 62 x3 + 63 x4 + 44 x5 + 27 x6 + 60 x7 + 38 x8
        + 61 x9 + x10 + 55 x11 + s11 <= 630
 c12:   34 x0 + 33 x1 + 51 x2 + 4 x3 + 2 x4 + 39 x5 + 48 x6 + 81 x7 + 41 x8
        + 52 x9 + 68 x10 + 84 x11 + s12 <= 740
 c13:   36 x0 + 56 x1 + 93 x2 + 95 x3 + 61 x4 + 33 x5 + 34 x6 + 32 x7 + 91 x8
        + 50 x9 + 73 x10 + 28 x11 + s13 <= 467
 c14:   99 x0 + 78 x1 + 52 x2 + 82 x3 + 47 x4 + 21 x5 + 93 x6 + 84 x7 + 5 x8
        + 32 x9 + 88 x10 + 49 x11 + s14 <= 741
 cut_1: 56 x0 + 24 x1 + 89 x2 + 28 x3 + 74 x4 + 54 x5 + 87 x6 + 98 x7 + 14 x8
        + 9 x9 + 58 x10 + 84 x11 <= 32
 cut_2: 15 x0 + 59 x1 + 38 x2 + 7 x3 + 67 x4 + 28 x5 + 70 x6 + 19 x7 + 54 x8
        + 44 x9 + 54 x10 + 70 x11 <= 48
 cut_3: 9 x0 + 54 x1 + 28 x2 + 4 x3 + 56 x4 + 22 x5 + 58 x6 + 8 x7 + 50 x8
        + 41 x9 + 46 x10 + 58 x11 <= 43
 cut_4: 50 x0 + 64 x1 + 92 x2 + 25 x3 + 105 x4 + 60 x5 + 117 x6 + 83 x7 + 53 x8
        + 42 x9 + 84 x10 + 115 x11 <= 61
 cut_5: 6 x0 + 22 x1 + 15 x2 + 3 x3 + 25 x4 + 11 x5 + 27 x6 + 8 x7 + 20 x8
        + 16 x9 + 21 x10 + 27 x11 <= 18.0000000000001
 cut_6: 11 x0 + 94 x1 + 43 x2 + 5 x3 + 94 x4 + 34 x5 + 96 x6 + 8 x7 + 87 x8
        + 71 x9 + 77 x10 + 97 x11 <= 73
Bounds
 0 <= x0 <= 1
 0 <= x1 <= 1
 0 <= x2 <= 1
 0 <= x3 <= 1
 0 <= x4 <= 1
 0 <= x5 <= 1
 0 <= x6 <= 1
 0 <= x7 <= 1
 0 <= x8 <= 1
 0 <= x9 <= 1
 0 <= x10 <= 1
 0 <= x11 <= 1
End
